(set-info :smt-lib-version 2.6)
(set-logic UFNIA)
(set-info :source |
Generated by: Geoff Sutcliffe
Generated on: 2026-03-11
Generator: TPTPWorld
Application: Benchmarking automated theorem provers
Time limit: 120.0

These benchmarks are translations from the TPTP Library (Thousands of
Problems for Theorem Provers), see http://www.cs.miami.edu/~tptp/

The TPTP is maintained by Geoff Sutcliffe, and he contributed this
selection of benchmarks to SMT-LIB.  They were exported from the
v9.2.1 realease of TPTP.
|)
(set-info :category "industrial")
(set-info :status "unknown")
; SZS status Success
(declare-sort $$unsorted 0)
(declare-sort tptp.uni 0)
(declare-sort tptp.ty 0)
(declare-fun tptp.sort (tptp.ty tptp.uni) Bool)
(declare-fun tptp.witness (tptp.ty) tptp.uni)
(assert (forall ((A tptp.ty)) (tptp.sort A (tptp.witness A))))
(declare-fun tptp.int () tptp.ty)
(declare-fun tptp.real () tptp.ty)
(declare-sort tptp.bool 0)
(declare-fun tptp.bool1 () tptp.ty)
(declare-fun tptp.true () tptp.bool)
(declare-fun tptp.false () tptp.bool)
(declare-fun tptp.match_bool (tptp.ty tptp.bool tptp.uni tptp.uni) tptp.uni)
(assert (forall ((A tptp.ty) (X tptp.bool) (X1 tptp.uni) (X2 tptp.uni)) (tptp.sort A (tptp.match_bool A X X1 X2))))
(assert (forall ((A tptp.ty) (Z tptp.uni) (Z1 tptp.uni)) (=> (tptp.sort A Z) (= (tptp.match_bool A tptp.true Z Z1) Z))))
(assert (forall ((A tptp.ty) (Z tptp.uni) (Z1 tptp.uni)) (=> (tptp.sort A Z1) (= (tptp.match_bool A tptp.false Z Z1) Z1))))
(assert (not (= tptp.true tptp.false)))
(assert (forall ((U tptp.bool)) (or (= U tptp.true) (= U tptp.false))))
(declare-sort tptp.tuple0 0)
(declare-fun tptp.tuple01 () tptp.ty)
(declare-fun tptp.tuple02 () tptp.tuple0)
(assert (forall ((U tptp.tuple0)) (= U tptp.tuple02)))
(declare-fun tptp.qtmark () tptp.ty)
(assert (forall ((X Int) (Y Int) (Z Int)) (=> (<= X Y) (=> (<= 0 Z) (<= (* X Z) (* Y Z))))))
(declare-fun tptp.min (Int Int) Int)
(declare-fun tptp.max (Int Int) Int)
(assert (forall ((X Int) (Y Int)) (let ((_let_1 (tptp.max X Y))) (and (<= X _let_1) (<= Y _let_1)))))
(assert (forall ((X Int) (Y Int)) (let ((_let_1 (tptp.max X Y))) (or (= _let_1 X) (= _let_1 Y)))))
(assert (forall ((X Int) (Y Int)) (let ((_let_1 (tptp.min X Y))) (and (<= _let_1 X) (<= _let_1 Y)))))
(assert (forall ((X Int) (Y Int)) (let ((_let_1 (tptp.min X Y))) (or (= _let_1 X) (= _let_1 Y)))))
(assert (forall ((X Int) (Y Int)) (=> (<= Y X) (= (tptp.max X Y) X))))
(assert (forall ((X Int) (Y Int)) (=> (<= X Y) (= (tptp.max X Y) Y))))
(assert (forall ((X Int) (Y Int)) (=> (<= X Y) (= (tptp.min X Y) X))))
(assert (forall ((X Int) (Y Int)) (=> (<= Y X) (= (tptp.min X Y) Y))))
(assert (forall ((X Int) (Y Int)) (=> (<= Y X) (= (tptp.max X Y) (tptp.max Y X)))))
(assert (forall ((X Int) (Y Int)) (=> (<= Y X) (= (tptp.min X Y) (tptp.min Y X)))))
(declare-fun tptp.map (tptp.ty tptp.ty) tptp.ty)
(declare-fun tptp.get (tptp.ty tptp.ty tptp.uni tptp.uni) tptp.uni)
(assert (forall ((A tptp.ty) (B tptp.ty) (X tptp.uni) (X1 tptp.uni)) (tptp.sort B (tptp.get B A X X1))))
(declare-fun tptp.set (tptp.ty tptp.ty tptp.uni tptp.uni tptp.uni) tptp.uni)
(assert (forall ((A tptp.ty) (B tptp.ty) (X tptp.uni) (X1 tptp.uni) (X2 tptp.uni)) (tptp.sort (tptp.map A B) (tptp.set B A X X1 X2))))
(assert (forall ((A tptp.ty) (B tptp.ty) (M tptp.uni) (A1 tptp.uni) (A2 tptp.uni) (B1 tptp.uni)) (=> (tptp.sort B B1) (=> (= A1 A2) (= (tptp.get B A (tptp.set B A M A1 B1) A2) B1)))))
(assert (forall ((A tptp.ty) (B tptp.ty) (M tptp.uni) (A1 tptp.uni) (A2 tptp.uni)) (=> (tptp.sort A A1) (=> (tptp.sort A A2) (forall ((B1 tptp.uni)) (=> (not (= A1 A2)) (= (tptp.get B A (tptp.set B A M A1 B1) A2) (tptp.get B A M A2))))))))
(declare-fun tptp.const (tptp.ty tptp.ty tptp.uni) tptp.uni)
(assert (forall ((A tptp.ty) (B tptp.ty) (X tptp.uni)) (tptp.sort (tptp.map A B) (tptp.const B A X))))
(assert (forall ((A tptp.ty) (B tptp.ty) (B1 tptp.uni) (A1 tptp.uni)) (=> (tptp.sort B B1) (= (tptp.get B A (tptp.const B A B1) A1) B1))))
(declare-fun tptp.ref (tptp.ty) tptp.ty)
(declare-fun tptp.mk_ref (tptp.ty tptp.uni) tptp.uni)
(assert (forall ((A tptp.ty) (X tptp.uni)) (tptp.sort (tptp.ref A) (tptp.mk_ref A X))))
(declare-fun tptp.contents (tptp.ty tptp.uni) tptp.uni)
(assert (forall ((A tptp.ty) (X tptp.uni)) (tptp.sort A (tptp.contents A X))))
(assert (forall ((A tptp.ty) (U tptp.uni)) (=> (tptp.sort A U) (= (tptp.contents A (tptp.mk_ref A U)) U))))
(assert (forall ((A tptp.ty) (U tptp.uni)) (=> (tptp.sort (tptp.ref A) U) (= U (tptp.mk_ref A (tptp.contents A U))))))
(declare-fun tptp.n () Int)
(assert (<= 0 tptp.n))
(declare-fun tptp.size () Int)
(declare-sort tptp.set1 0)
(declare-fun tptp.set2 () tptp.ty)
(declare-fun tptp.mem (Int tptp.set1) Bool)
(declare-fun tptp.remove (Int tptp.set1) tptp.set1)
(assert (forall ((X Int) (Y Int) (S tptp.set1)) (= (tptp.mem X (tptp.remove Y S)) (and (not (= X Y)) (tptp.mem X S)))))
(declare-fun tptp.below (Int) tptp.set1)
(assert (forall ((X Int) (N Int)) (=> (and (<= 0 N) (<= N tptp.size)) (= (tptp.mem X (tptp.below N)) (and (<= 0 X) (< X N))))))
(declare-fun tptp.cardinal (tptp.set1) Int)
(assert (forall ((S tptp.set1)) (= (= (tptp.cardinal S) 0) (forall ((X Int)) (not (tptp.mem X S))))))
(assert (forall ((X Int) (S tptp.set1)) (=> (tptp.mem X S) (= (tptp.cardinal S) (+ 1 (tptp.cardinal (tptp.remove X S)))))))
(assert (forall ((N Int)) (let ((_let_1 (tptp.cardinal (tptp.below N)))) (let ((_let_2 (<= 0 N))) (=> (and _let_2 (<= N tptp.size)) (and (=> _let_2 (= _let_1 N)) (=> (not _let_2) (= _let_1 0))))))))
(assert (<= tptp.n tptp.size))
(declare-sort tptp.map_int_lpmap_int_intrp 0)
(declare-fun tptp.m () tptp.map_int_lpmap_int_intrp)
(declare-sort tptp.map_int_int 0)
(declare-fun tptp.t2tb (tptp.map_int_int) tptp.uni)
(assert (forall ((X tptp.map_int_int)) (tptp.sort (tptp.map tptp.int tptp.int) (tptp.t2tb X))))
(declare-fun tptp.tb2t (tptp.uni) tptp.map_int_int)
(assert (forall ((I tptp.map_int_int)) (= (tptp.tb2t (tptp.t2tb I)) I)))
(assert (forall ((J tptp.uni)) (= (tptp.t2tb (tptp.tb2t J)) J)))
(declare-fun tptp.t2tb1 (tptp.map_int_lpmap_int_intrp) tptp.uni)
(assert (forall ((X tptp.map_int_lpmap_int_intrp)) (tptp.sort (tptp.map tptp.int (tptp.map tptp.int tptp.int)) (tptp.t2tb1 X))))
(declare-fun tptp.tb2t1 (tptp.uni) tptp.map_int_lpmap_int_intrp)
(assert (forall ((I tptp.map_int_lpmap_int_intrp)) (= (tptp.tb2t1 (tptp.t2tb1 I)) I)))
(assert (forall ((J tptp.uni)) (= (tptp.t2tb1 (tptp.tb2t1 J)) J)))
(declare-fun tptp.t2tb2 (Int) tptp.uni)
(assert (forall ((X Int)) (tptp.sort tptp.int (tptp.t2tb2 X))))
(declare-fun tptp.tb2t2 (tptp.uni) Int)
(assert (forall ((I Int)) (= (tptp.tb2t2 (tptp.t2tb2 I)) I)))
(assert (forall ((J tptp.uni)) (= (tptp.t2tb2 (tptp.tb2t2 J)) J)))
(assert (forall ((I Int) (J Int)) (=> (and (<= 0 I) (< I tptp.n)) (=> (and (<= 0 J) (< J tptp.n)) (<= 0 (tptp.tb2t2 (tptp.get tptp.int tptp.int (tptp.get (tptp.map tptp.int tptp.int) tptp.int (tptp.t2tb1 tptp.m) (tptp.t2tb2 I)) (tptp.t2tb2 J))))))))
(declare-fun tptp.solution (tptp.map_int_int Int) Bool)
(assert (forall ((S tptp.map_int_int) (I Int)) (= (tptp.solution S I) (and (forall ((K Int)) (let ((_let_1 (tptp.tb2t2 (tptp.get tptp.int tptp.int (tptp.t2tb S) (tptp.t2tb2 K))))) (=> (and (<= I K) (< K tptp.n)) (and (<= 0 _let_1) (< _let_1 tptp.n))))) (forall ((K1 Int) (K2 Int)) (let ((_let_1 (tptp.t2tb S))) (=> (and (<= I K1) (< K1 K2) (< K2 tptp.n)) (not (= (tptp.tb2t2 (tptp.get tptp.int tptp.int _let_1 (tptp.t2tb2 K1))) (tptp.tb2t2 (tptp.get tptp.int tptp.int _let_1 (tptp.t2tb2 K2))))))))))))
(declare-fun tptp.f (tptp.map_int_int Int) Int)
(assert (forall ((S tptp.map_int_int) (I Int)) (let ((_let_1 (tptp.t2tb2 I))) (= (tptp.f S I) (tptp.tb2t2 (tptp.get tptp.int tptp.int (tptp.get (tptp.map tptp.int tptp.int) tptp.int (tptp.t2tb1 tptp.m) _let_1) (tptp.get tptp.int tptp.int (tptp.t2tb S) _let_1)))))))
(declare-fun tptp.sum (tptp.map_int_int Int Int) Int)
(assert (forall ((C tptp.map_int_int) (I Int) (J Int)) (=> (<= J I) (= (tptp.sum C I J) 0))))
(assert (forall ((C tptp.map_int_int) (I Int) (J Int)) (=> (< I J) (= (tptp.sum C I J) (+ (tptp.f C I) (tptp.sum C (+ I 1) J))))))
(assert (forall ((C tptp.map_int_int) (I Int) (J Int)) (let ((_let_1 (- J 1))) (=> (< I J) (= (tptp.sum C I J) (+ (tptp.sum C I _let_1) (tptp.f C _let_1)))))))
(assert (forall ((C tptp.map_int_int) (I Int) (K Int) (J Int)) (=> (and (<= I K) (<= K J)) (= (tptp.sum C I J) (+ (tptp.sum C I K) (tptp.sum C K J))))))
(assert (forall ((C1 tptp.map_int_int) (C2 tptp.map_int_int) (I Int) (J Int)) (=> (forall ((K Int)) (=> (and (<= I K) (< K J)) (= (tptp.f C1 K) (tptp.f C2 K)))) (= (tptp.sum C1 I J) (tptp.sum C2 I J)))))
(assert (forall ((I Int)) (=> (< I tptp.n) (forall ((J Int) (S tptp.map_int_int)) (let ((_let_1 (tptp.t2tb2 J))) (let ((_let_2 (tptp.t2tb2 I))) (= (tptp.sum (tptp.tb2t (tptp.set tptp.int tptp.int (tptp.t2tb S) _let_2 _let_1)) I tptp.n) (+ (tptp.tb2t2 (tptp.get tptp.int tptp.int (tptp.get (tptp.map tptp.int tptp.int) tptp.int (tptp.t2tb1 tptp.m) _let_2) _let_1)) (tptp.sum S (+ I 1) tptp.n)))))))))
(declare-fun tptp.option (tptp.ty) tptp.ty)
(declare-fun tptp.none (tptp.ty) tptp.uni)
(assert (forall ((A tptp.ty)) (tptp.sort (tptp.option A) (tptp.none A))))
(declare-fun tptp.some (tptp.ty tptp.uni) tptp.uni)
(assert (forall ((A tptp.ty) (X tptp.uni)) (tptp.sort (tptp.option A) (tptp.some A X))))
(declare-fun tptp.match_option (tptp.ty tptp.ty tptp.uni tptp.uni tptp.uni) tptp.uni)
(assert (forall ((A tptp.ty) (A1 tptp.ty) (X tptp.uni) (X1 tptp.uni) (X2 tptp.uni)) (tptp.sort A1 (tptp.match_option A1 A X X1 X2))))
(assert (forall ((A tptp.ty) (A1 tptp.ty) (Z tptp.uni) (Z1 tptp.uni)) (=> (tptp.sort A1 Z) (= (tptp.match_option A1 A (tptp.none A) Z Z1) Z))))
(assert (forall ((A tptp.ty) (A1 tptp.ty) (Z tptp.uni) (Z1 tptp.uni) (U tptp.uni)) (=> (tptp.sort A1 Z1) (= (tptp.match_option A1 A (tptp.some A U) Z Z1) Z1))))
(assert (forall ((A tptp.ty) (V tptp.uni)) (not (= (tptp.none A) (tptp.some A V)))))
(declare-fun tptp.some_proj_1 (tptp.ty tptp.uni) tptp.uni)
(assert (forall ((A tptp.ty) (X tptp.uni)) (tptp.sort A (tptp.some_proj_1 A X))))
(assert (forall ((A tptp.ty) (U tptp.uni)) (=> (tptp.sort A U) (= (tptp.some_proj_1 A (tptp.some A U)) U))))
(assert (forall ((A tptp.ty) (U tptp.uni)) (=> (tptp.sort (tptp.option A) U) (or (= U (tptp.none A)) (= U (tptp.some A (tptp.some_proj_1 A U)))))))
(declare-fun tptp.t (tptp.ty tptp.ty) tptp.ty)
(declare-fun tptp.mk_t (tptp.ty tptp.ty tptp.uni) tptp.uni)
(assert (forall ((A tptp.ty) (B tptp.ty) (X tptp.uni)) (tptp.sort (tptp.t A B) (tptp.mk_t B A X))))
(declare-fun tptp.contents1 (tptp.ty tptp.ty tptp.uni) tptp.uni)
(assert (forall ((A tptp.ty) (B tptp.ty) (X tptp.uni)) (tptp.sort (tptp.map A (tptp.option B)) (tptp.contents1 B A X))))
(assert (forall ((A tptp.ty) (B tptp.ty) (U tptp.uni)) (=> (tptp.sort (tptp.map A (tptp.option B)) U) (= (tptp.contents1 B A (tptp.mk_t B A U)) U))))
(assert (forall ((A tptp.ty) (B tptp.ty) (U tptp.uni)) (=> (tptp.sort (tptp.t A B) U) (= U (tptp.mk_t B A (tptp.contents1 B A U))))))
(declare-fun tptp.mixfix_lbrb (tptp.ty tptp.ty tptp.uni tptp.uni) tptp.uni)
(assert (forall ((A tptp.ty) (B tptp.ty) (X tptp.uni) (X1 tptp.uni)) (tptp.sort (tptp.option B) (tptp.mixfix_lbrb B A X X1))))
(assert (forall ((A tptp.ty) (B tptp.ty) (H tptp.uni) (K tptp.uni)) (= (tptp.mixfix_lbrb B A H K) (tptp.get (tptp.option B) A (tptp.contents1 B A H) K))))
(declare-fun tptp.tuple2 (tptp.ty tptp.ty) tptp.ty)
(declare-fun tptp.tuple21 (tptp.ty tptp.ty tptp.uni tptp.uni) tptp.uni)
(assert (forall ((A tptp.ty) (A1 tptp.ty) (X tptp.uni) (X1 tptp.uni)) (tptp.sort (tptp.tuple2 A1 A) (tptp.tuple21 A1 A X X1))))
(declare-fun tptp.tuple2_proj_1 (tptp.ty tptp.ty tptp.uni) tptp.uni)
(assert (forall ((A tptp.ty) (A1 tptp.ty) (X tptp.uni)) (tptp.sort A1 (tptp.tuple2_proj_1 A1 A X))))
(assert (forall ((A tptp.ty) (A1 tptp.ty) (U tptp.uni) (U1 tptp.uni)) (=> (tptp.sort A1 U) (= (tptp.tuple2_proj_1 A1 A (tptp.tuple21 A1 A U U1)) U))))
(declare-fun tptp.tuple2_proj_2 (tptp.ty tptp.ty tptp.uni) tptp.uni)
(assert (forall ((A tptp.ty) (A1 tptp.ty) (X tptp.uni)) (tptp.sort A (tptp.tuple2_proj_2 A1 A X))))
(assert (forall ((A tptp.ty) (A1 tptp.ty) (U tptp.uni) (U1 tptp.uni)) (=> (tptp.sort A U1) (= (tptp.tuple2_proj_2 A1 A (tptp.tuple21 A1 A U U1)) U1))))
(assert (forall ((A tptp.ty) (A1 tptp.ty) (U tptp.uni)) (=> (tptp.sort (tptp.tuple2 A1 A) U) (= U (tptp.tuple21 A1 A (tptp.tuple2_proj_1 A1 A U) (tptp.tuple2_proj_2 A1 A U))))))
(declare-sort tptp.lpintcm_setrp 0)
(declare-fun tptp.pre (tptp.lpintcm_setrp) Bool)
(declare-fun tptp.t2tb3 (tptp.lpintcm_setrp) tptp.uni)
(assert (forall ((X tptp.lpintcm_setrp)) (tptp.sort (tptp.tuple2 tptp.int tptp.set2) (tptp.t2tb3 X))))
(declare-fun tptp.tb2t3 (tptp.uni) tptp.lpintcm_setrp)
(assert (forall ((I tptp.lpintcm_setrp)) (= (tptp.tb2t3 (tptp.t2tb3 I)) I)))
(assert (forall ((J tptp.uni)) (= (tptp.t2tb3 (tptp.tb2t3 J)) J)))
(declare-fun tptp.t2tb4 (tptp.set1) tptp.uni)
(assert (forall ((X tptp.set1)) (tptp.sort tptp.set2 (tptp.t2tb4 X))))
(declare-fun tptp.tb2t4 (tptp.uni) tptp.set1)
(assert (forall ((I tptp.set1)) (= (tptp.tb2t4 (tptp.t2tb4 I)) I)))
(assert (forall ((J tptp.uni)) (=> (tptp.sort tptp.set2 J) (= (tptp.t2tb4 (tptp.tb2t4 J)) J))))
(assert (forall ((I Int) (C tptp.set1)) (= (tptp.pre (tptp.tb2t3 (tptp.tuple21 tptp.int tptp.set2 (tptp.t2tb2 I) (tptp.t2tb4 C)))) (and (<= 0 I) (<= I tptp.n) (= (tptp.cardinal C) (- tptp.n I)) (forall ((K Int)) (=> (tptp.mem K C) (and (<= 0 K) (< K tptp.n))))))))
(declare-sort tptp.lpintcm_map_int_intrp 0)
(declare-fun tptp.post (tptp.lpintcm_setrp tptp.lpintcm_map_int_intrp) Bool)
(declare-fun tptp.t2tb5 (tptp.lpintcm_map_int_intrp) tptp.uni)
(assert (forall ((X tptp.lpintcm_map_int_intrp)) (tptp.sort (tptp.tuple2 tptp.int (tptp.map tptp.int tptp.int)) (tptp.t2tb5 X))))
(declare-fun tptp.tb2t5 (tptp.uni) tptp.lpintcm_map_int_intrp)
(assert (forall ((I tptp.lpintcm_map_int_intrp)) (= (tptp.tb2t5 (tptp.t2tb5 I)) I)))
(assert (forall ((J tptp.uni)) (= (tptp.t2tb5 (tptp.tb2t5 J)) J)))
(assert (forall ((I Int) (C tptp.set1) (R Int) (Sol tptp.map_int_int)) (= (tptp.post (tptp.tb2t3 (tptp.tuple21 tptp.int tptp.set2 (tptp.t2tb2 I) (tptp.t2tb4 C))) (tptp.tb2t5 (tptp.tuple21 tptp.int (tptp.map tptp.int tptp.int) (tptp.t2tb2 R) (tptp.t2tb Sol)))) (and (<= 0 R) (tptp.solution Sol I) (forall ((K Int)) (=> (and (<= I K) (< K tptp.n)) (tptp.mem (tptp.tb2t2 (tptp.get tptp.int tptp.int (tptp.t2tb Sol) (tptp.t2tb2 K))) C))) (= R (tptp.sum Sol I tptp.n)) (forall ((S tptp.map_int_int)) (=> (tptp.solution S I) (=> (forall ((K Int)) (=> (and (<= I K) (< K tptp.n)) (tptp.mem (tptp.tb2t2 (tptp.get tptp.int tptp.int (tptp.t2tb S) (tptp.t2tb2 K))) C))) (<= (tptp.sum S I tptp.n) R))))))))
(declare-sort tptp.t18_lpintcm_setrp_lpintcm_map_int_intrp 0)
(declare-fun tptp.inv (tptp.t18_lpintcm_setrp_lpintcm_map_int_intrp) Bool)
(declare-sort tptp.option_lpintcm_map_int_intrp 0)
(declare-fun tptp.t2tb6 (tptp.option_lpintcm_map_int_intrp) tptp.uni)
(assert (forall ((X tptp.option_lpintcm_map_int_intrp)) (tptp.sort (tptp.option (tptp.tuple2 tptp.int (tptp.map tptp.int tptp.int))) (tptp.t2tb6 X))))
(declare-fun tptp.tb2t6 (tptp.uni) tptp.option_lpintcm_map_int_intrp)
(assert (forall ((I tptp.option_lpintcm_map_int_intrp)) (= (tptp.tb2t6 (tptp.t2tb6 I)) I)))
(assert (forall ((J tptp.uni)) (= (tptp.t2tb6 (tptp.tb2t6 J)) J)))
(declare-fun tptp.t2tb7 (tptp.t18_lpintcm_setrp_lpintcm_map_int_intrp) tptp.uni)
(assert (forall ((X tptp.t18_lpintcm_setrp_lpintcm_map_int_intrp)) (tptp.sort (tptp.t (tptp.tuple2 tptp.int tptp.set2) (tptp.tuple2 tptp.int (tptp.map tptp.int tptp.int))) (tptp.t2tb7 X))))
(declare-fun tptp.tb2t7 (tptp.uni) tptp.t18_lpintcm_setrp_lpintcm_map_int_intrp)
(assert (forall ((I tptp.t18_lpintcm_setrp_lpintcm_map_int_intrp)) (= (tptp.tb2t7 (tptp.t2tb7 I)) I)))
(assert (forall ((J tptp.uni)) (= (tptp.t2tb7 (tptp.tb2t7 J)) J)))
(assert (forall ((T tptp.t18_lpintcm_setrp_lpintcm_map_int_intrp)) (= (tptp.inv T) (forall ((K tptp.lpintcm_setrp) (V tptp.lpintcm_map_int_intrp)) (let ((_let_1 (tptp.tuple2 tptp.int (tptp.map tptp.int tptp.int)))) (=> (= (tptp.tb2t6 (tptp.mixfix_lbrb _let_1 (tptp.tuple2 tptp.int tptp.set2) (tptp.t2tb7 T) (tptp.t2tb3 K))) (tptp.tb2t6 (tptp.some _let_1 (tptp.t2tb5 V)))) (tptp.post K V)))))))
(declare-sort tptp.map_lpintcm_setrp_lpoption_lpintcm_map_int_intrprp 0)
(declare-fun tptp.t2tb8 (tptp.map_lpintcm_setrp_lpoption_lpintcm_map_int_intrprp) tptp.uni)
(assert (forall ((X tptp.map_lpintcm_setrp_lpoption_lpintcm_map_int_intrprp)) (tptp.sort (tptp.map (tptp.tuple2 tptp.int tptp.set2) (tptp.option (tptp.tuple2 tptp.int (tptp.map tptp.int tptp.int)))) (tptp.t2tb8 X))))
(declare-fun tptp.tb2t8 (tptp.uni) tptp.map_lpintcm_setrp_lpoption_lpintcm_map_int_intrprp)
(assert (forall ((I tptp.map_lpintcm_setrp_lpoption_lpintcm_map_int_intrprp)) (= (tptp.tb2t8 (tptp.t2tb8 I)) I)))
(assert (forall ((J tptp.uni)) (= (tptp.t2tb8 (tptp.tb2t8 J)) J)))
(assert (not (forall ((Table tptp.map_lpintcm_setrp_lpoption_lpintcm_map_int_intrprp)) (=> (forall ((K Int) (K1 tptp.set1)) (let ((_let_1 (tptp.tuple2 tptp.int (tptp.map tptp.int tptp.int)))) (= (tptp.tb2t6 (tptp.get (tptp.option _let_1) (tptp.tuple2 tptp.int tptp.set2) (tptp.t2tb8 Table) (tptp.tuple21 tptp.int tptp.set2 (tptp.t2tb2 K) (tptp.t2tb4 K1)))) (tptp.tb2t6 (tptp.none _let_1))))) (forall ((K tptp.lpintcm_setrp) (V tptp.lpintcm_map_int_intrp)) (let ((_let_1 (tptp.tuple2 tptp.int (tptp.map tptp.int tptp.int)))) (let ((_let_2 (tptp.tuple2 tptp.int tptp.set2))) (=> (= (tptp.tb2t6 (tptp.mixfix_lbrb _let_1 _let_2 (tptp.mk_t _let_1 _let_2 (tptp.t2tb8 Table)) (tptp.t2tb3 K))) (tptp.tb2t6 (tptp.some _let_1 (tptp.t2tb5 V)))) (tptp.post K V)))))))))
(check-sat)
(exit)
